
(set-logic ALL) 

(declare-datatype MyList ((Nil) (Cons (head Real) (tail MyList)) )) 
(declare-fun l0 () MyList) 
(declare-fun l1 () MyList) 
(declare-fun l2 () MyList) 
(declare-fun l3 () MyList) 
(declare-fun i0 () Real) 
(declare-fun i1 () Real) 
(assert (is-Cons l1) )
(assert (or (= l2 Nil) (= l2 Nil)) )
(assert (= l3 Nil) )
(assert (= l0 Nil) )
(assert (not (= l1 l1)) )
(assert (is-Nil Nil) )
(assert (= l0 Nil) )
(assert (= l0 Nil) )
(check-sat)
